c This is QMaxSAT 2017 based on 14.07
c This is Glucose 3.0
c This is MiniSat 2.2.0
c WARNING: for repeatability, setting FPU to use double precision
c card = mrwto, comp = 0, pmodel = 0, narr = 6, mct = 52, verb = 0
cr firstCPXsol 0 0 0
c top = 1525567
c |  Number of variables:    146274                                           |
c |  Number of clauses:      167400168                                        |
c |  Weight of hard clauses: 1525567                                          |
c |  Number of soft clauses: 15912                                            |
c |  Number of unit soft clauses: 15912                                       |
c |  Maximum Cardinality (by unit): 9153396      (9153396     )               |
c last restart ## conflicts  :  172 79675 
o 5418 | cpuTime 15.5599 s
c Sum of weights = 1525566
c A number of soft clauses remained = 2652
c MRWTO encoding for Pseudo-Boolean Constraints
c sizeMax=5418
c No.0 Divisor=9	generated by pow1
c No.1 Divisor=9	generated by pow1
c No.2 Divisor=9	generated by pow1
c No.3 Divisor=9	generated by pow1
c p0= 9	p1= 9	p2= 9	p3= 9	
c number of digits = 5
c linkingVar[0].size = 9, linkingVar[1].size = 9, linkingVar[2].size = 9, linkingVar[3].size = 8, linkingVar[4].size = 1, 
c Pseudo-Boolean Constraints: 68260 variables and 555467 clauses
c Sum of weights = 1525566
c A number of soft clauses remained = 2652
c MRWTO encoding for Pseudo-Boolean Constraints
c sizeMax=5418
c No.0 Divisor=9	generated by pow1
c No.1 Divisor=9	generated by pow1
c No.2 Divisor=9	generated by pow1
c No.3 Divisor=9	generated by pow1
c p0= 9	p1= 9	p2= 9	p3= 9	
c number of digits = 5
c linkingVar[0].size = 9, linkingVar[1].size = 9, linkingVar[2].size = 9, linkingVar[3].size = 8, linkingVar[4].size = 1, 
c Pseudo-Boolean Constraints: 68260 variables and 555467 clauses
c Sum of weights = 1525566
c A number of soft clauses remained = 2652
c MRWTO encoding for Pseudo-Boolean Constraints
c sizeMax=5418
c No.0 Divisor=9	generated by pow1
c No.1 Divisor=9	generated by pow1
c No.2 Divisor=9	generated by pow1
c No.3 Divisor=9	generated by pow1
c p0= 9	p1= 9	p2= 9	p3= 9	
c number of digits = 5
c linkingVar[0].size = 9, linkingVar[1].size = 9, linkingVar[2].size = 9, linkingVar[3].size = 8, linkingVar[4].size = 1, 
c Pseudo-Boolean Constraints: 68260 variables and 555467 clauses
c Sum of weights = 1525566
c A number of soft clauses remained = 2652
c MRWTO encoding for Pseudo-Boolean Constraints
c sizeMax=5418
c No.0 Divisor=9	generated by pow1
c No.1 Divisor=9	generated by pow1
c No.2 Divisor=9	generated by pow1
c No.3 Divisor=9	generated by pow1
c p0= 9	p1= 9	p2= 9	p3= 9	
c number of digits = 5
c linkingVar[0].size = 9, linkingVar[1].size = 9, linkingVar[2].size = 9, linkingVar[3].size = 8, linkingVar[4].size = 1, 
c Pseudo-Boolean Constraints: 68260 variables and 555467 clauses
c Sum of weights = 1525566
c A number of soft clauses remained = 2652
c MRWTO encoding for Pseudo-Boolean Constraints
c sizeMax=5418
c No.0 Divisor=9	generated by pow1
c No.1 Divisor=9	generated by pow1
c No.2 Divisor=9	generated by pow1
c No.3 Divisor=9	generated by pow1
c p0= 9	p1= 9	p2= 9	p3= 9	
c number of digits = 5
c linkingVar[0].size = 9, linkingVar[1].size = 9, linkingVar[2].size = 9, linkingVar[3].size = 8, linkingVar[4].size = 1, 
c Pseudo-Boolean Constraints: 68260 variables and 555467 clauses
c Sum of weights = 1525566
c A number of soft clauses remained = 2652
c MRWTO encoding for Pseudo-Boolean Constraints
c sizeMax=5418
c No.0 Divisor=9	generated by pow1
c No.1 Divisor=9	generated by pow1
c No.2 Divisor=9	generated by pow1
c No.3 Divisor=9	generated by pow1
c p0= 9	p1= 9	p2= 9	p3= 9	
c number of digits = 5
c linkingVar[0].size = 9, linkingVar[1].size = 9, linkingVar[2].size = 9, linkingVar[3].size = 8, linkingVar[4].size = 1, 
c Pseudo-Boolean Constraints: 68260 variables and 555467 clauses
s UNKNOWN
c Search is stopped by a limit (maybe time-limit)
cr positiVarArr: [ | 2@1(1->2) | 55@1(2->3) | 108@1(3->4) | 161@1(4->5) | 214@1(5->6) | 267@1(6->7) | 320@1(7->8) | 373@1(8->9) | 417@1(9->1) | 2714@2(1->10) | 3183@2(10->11) | 3236@2(11->12) | 3289@2(12->13) | 3342@2(13->14) | 3395@2(14->15) | 3448@2(15->16) | 3501@2(16->17) | 3537@2(17->1) | 5426@3(1->18) | 6311@3(18->19) | 6364@3(19->20) | 6417@3(20->21) | 6470@3(21->22) | 6523@3(22->23) | 6576@3(23->24) | 6629@3(24->25) | 6706@3(25->50) | 7957@3(50->1) | 8138@4(1->26) | 9439@4(26->27) | 9492@4(27->28) | 9545@4(28->29) | 9598@4(29->30) | 9651@4(30->31) | 9704@4(31->32) | 9757@4(32->33) | 9828@4(33->52) | 10765@4(52->1) | 10850@5(1->34) | 12567@5(34->35) | 12620@5(35->36) | 12673@5(36->37) | 12726@5(37->38) | 12779@5(38->39) | 12832@5(39->40) | 12885@5(40->41) | 12947@5(41->51) | 13417@5(51->1) | 13562@6(1->42) | 15695@6(42->43) | 15748@6(43->44) | 15801@6(44->45) | 15854@6(45->46) | 15907@6(46->47) | 15960@6(47->48) | 16013@6(48->49) | 16017@6(49->1) | ]
cr the 1-th chain: [ 1->2->3->4->5->6->7->8->9->1 ] (#non-depot=8) {#cumul.=9}
cr the 2-th chain: [ 1->10->11->12->13->14->15->16->17->1 ] (#non-depot=8) {#cumul.=17}
cr the 3-th chain: [ 1->18->19->20->21->22->23->24->25->50->1 ] (#non-depot=9) {#cumul.=26}
cr the 4-th chain: [ 1->26->27->28->29->30->31->32->33->52->1 ] (#non-depot=9) {#cumul.=35}
cr the 5-th chain: [ 1->34->35->36->37->38->39->40->41->51->1 ] (#non-depot=9) {#cumul.=44}
cr the 6-th chain: [ 1->42->43->44->45->46->47->48->49->1 ] (#non-depot=8) {#cumul.=52}
c Latest Answer = 0 by 1 loops
c restarts              : 38344
c conflicts             : 6172917        (1722 /sec)
c decisions             : 397246541      (0.00 % random) (110801 /sec)
c propagations          : 25347617991    (7070017 /sec)
c conflict literals     : 2344852935     (9.62 % deleted)
c Memory used           : 14191.00 MB
c CPU time              : 3585.23 s
